StudentsNr = 10;
InstructorsNr = 82;
DaysNr = 1;
SlotsPerDay = 40;
AvailabilitySlotsLenght = 40;
RoomNr = 2;
ProgrammNr = 2;
DegreeNr = 3;
RolesNr = 2;
CoursesNr = 7;
InstructorsProgramm = [{1}, {1}, {1}, {1, 2}, {1}, {1}, {2}, {2}, {2}, {1}, {2}, {1}, {2}, {2}, {1, 2}, {1}, {1, 2}, {1, 2}, {2}, {1, 2}, {1, 2}, {2}, {1}, {1}, {1}, {2}, {2}, {1}, {1}, {1, 2}, {2}, {2}, {1}, {1}, {1}, {1, 2}, {1, 2}, {1}, {1}, {1}, {2}, {2}, {1}, {2}, {1}, {2}, {2}, {2}, {2}, {1, 2}, {1}, {1, 2}, {1}, {2}, {1, 2}, {2}, {1}, {1}, {1}, {1}, {2}, {1, 2}, {2}, {1}, {1, 2}, {1}, {1}, {1, 2}, {1}, {2}, {2}, {1, 2}, {2}, {2}, {2}, {1, 2}, {1}, {2}, {1}, {1}, {1, 2}, {2}];
InstructorRolesPerProgramm = [|{1, 5, 15, 18, 20, 21, 28, 34, 37, 40, 45, 50, 51, 53, 58, 62, 66, 67, 77, 80, 81}, {3, 5, 10, 12, 15, 16, 17, 24, 28, 30, 34, 38, 39, 43, 45, 50, 51, 52, 55, 58, 60, 64, 68, 72, 81}|{7, 8, 11, 13, 14, 15, 18, 20, 21, 27, 31, 32, 37, 42, 48, 50, 54, 62, 63, 73, 78, 81}, {8, 9, 11, 15, 17, 19, 22, 27, 30, 32, 42, 47, 50, 52, 55, 61, 68, 70, 71, 72, 73, 75, 81}|];
InstructorsAvailability = [|1, |1, |1, |1, |1, |1, |0, |1, |0, |0, |1, |0, |0, |0, |0, |0, |1, |0, |1, |1, |0, |0, |0, |0, |0, |1, |1, |1, |0, |1, |0, |0, |1, |0, |1, |0, |1, |0, |1, |1, |0, |1, |1, |0, |1, |0, |1, |0, |0, |0, |1, |1, |0, |0, |0, |0, |0, |1, |0, |0, |1, |0, |0, |0, |1, |0, |1, |1, |1, |1, |0, |1, |1, |1, |0, |0, |0, |1, |0, |0, |1, |0|];
StudentsProgramm = [2, 1, 2, 2, 1, 2, 2, 2, 1, 2];
StudentsDegree = [2, 3, 3, 2, 1, 1, 3, 3, 1, 3];
StudentsSupervisorId = [52, 69, 61, 82, 40, 46, 27, 20, 16, 62];
StudentsCourseIds = [{1, 4}, {2, 3, 4, 5, 6, 7}, {2, 3, 4, 5, 6, 7}, {2, 4}, {1, 2, 3, 4, 5, 7}, {1, 2, 3, 4, 5, 6}, {1, 3, 4, 5, 6, 7}, {2, 3, 4, 5, 6, 7}, {1, 2, 3, 4, 6, 7}, {1, 2, 4, 5, 6, 7}];
StudentsAvailability = [|0, |1, |1, |0, |0, |0, |0, |1, |1, |0|];
TheoryticalMinCard = [0, 1, 0, 0, 0, 0, 0, 0, 0, 0];
CoursesInstructorIds = [{6, 8, 14, 23, 26, 27, 31, 33, 35, 36, 39, 40, 43, 44, 45, 48, 56, 73, 78, 81, 82}, {1, 2, 3, 5, 9, 10, 12, 17, 19, 20, 22, 25, 26, 27, 28, 31, 35, 36, 38, 39, 40, 45, 47, 49, 52, 56, 57, 64, 65, 71, 73, 78, 79, 80, 81}, {1, 2, 8, 20, 26, 30, 31, 35, 39, 42, 49, 52, 63, 67, 70, 72, 73, 74}, {1, 2, 4, 5, 9, 11, 13, 14, 15, 17, 18, 19, 20, 21, 22, 24, 25, 27, 28, 30, 34, 35, 37, 40, 41, 44, 45, 46, 49, 51, 52, 54, 55, 59, 60, 62, 63, 64, 68, 70, 71, 72, 73, 74, 75, 76, 77, 78, 79, 80, 82}, {4, 12, 16, 17, 27, 34, 39, 42, 46, 49, 54, 73, 74}, {4, 5, 7, 11, 15, 16, 17, 21, 22, 23, 26, 29, 34, 36, 40, 43, 44, 47, 49, 52, 53, 57, 62, 65, 66, 71, 72, 76}, {4, 6, 7, 8, 15, 18, 21, 26, 29, 30, 34, 35, 36, 41, 43, 44, 50, 51, 52, 53, 54, 56, 57, 60, 71, 72, 73, 74, 75, 76, 77, 79}];
RolesDemands = [11, 20];
RolesContinuity = [2];
ExamLen = [2, 2, 2, 2, 2, 2, 2, 2, 2, 2];
LunchTsMinLen = 2;
LunchStarts = [12..23];
SupervisorAvailable = 0;
OptimalLunchLenght = [3, 2];
OptimalStartTs = [0, 1];
OptimalFinishTs = [0, 40];
MinimizeRooms = 300;
RolesSoftContinuity = [|1, 2|0, 3|];
SameDegreeInRoom = 20;
Mergeability = 0;
